NAME: random16
TYPE: TSP
DIMENSION: 16
EDGE_WEIGHT_TYPE: EXPLICIT
EDGE_WEIGHT_FORMAT: FULL_MATRIX
EDGE_WEIGHT_SECTION
0 102 102 102 102 102 102 102 102 8 41 35 102 102 61 20
102 0 26 102 102 3 21 102 102 102 102 102 24 102 102 102
102 26 0 33 102 25 102 13 102 102 102 32 19 102 102 102
102 102 33 0 102 15 3 102 30 102 102 33 102 102 102 102
102 102 102 102 0 102 102 102 102 102 6 102 102 102 71 28
102 3 25 15 102 0 18 102 102 102 102 102 102 102 102 102
102 21 102 3 102 18 0 102 31 102 102 102 102 39 102 102
102 102 13 102 102 102 102 0 102 16 102 36 26 102 102 41
102 102 102 30 102 102 31 102 0 102 102 13 102 10 102 102
8 102 102 102 102 102 102 16 102 0 102 35 102 102 102 26
41 102 102 102 6 102 102 102 102 102 0 102 102 102 66 26
35 102 32 33 102 102 102 36 13 35 102 0 102 20 38 102
102 24 19 102 102 102 102 26 102 102 102 102 0 102 102 66
102 102 102 102 102 102 39 102 10 102 102 20 102 0 25 102
61 102 102 102 71 102 102 102 102 102 66 38 102 25 0 102
20 102 102 102 28 102 102 41 102 26 26 102 66 102 102 0
EOF
